SCIP Status        : problem is solved [optimal solution found]
Total Time         :      17.72
  solving          :      17.71
  presolving       :       0.53 (included in solving)
  reading          :       0.01
  copying          :       0.02 (2 #copies) (minimal 0.01, maximal 0.01, average 0.01)
Original Problem   :
  Problem name     : chp_shorttermplan2a
  Variables        : 1584 (0 binary, 240 integer, 0 implicit integer, 1344 continuous)
  Constraints      : 3896 initial, 3896 maximal
  Objective        : minimize, 48 non-zeros (abs.min = 1, abs.max = 1)
Presolved Problem  :
  Problem name     : t_chp_shorttermplan2a
  Variables        : 2359 (101 binary, 0 integer, 100 implicit integer, 2158 continuous)
  Constraints      : 2406 initial, 2407 maximal
  Objective        : minimize, 585 non-zeros (abs.min = 10, abs.max = 2510)
  Nonzeros         : 6066 constraint, 1056 clique table
Presolvers         :   ExecTime  SetupTime  Calls  FixedVars   AggrVars   ChgTypes  ChgBounds   AddHoles    DelCons    AddCons   ChgSides   ChgCoefs
  boundshift       :       0.00       0.00      0          0          0          0          0          0          0          0          0          0
  convertinttobin  :       0.00       0.00      0          0          0          0          0          0          0          0          0          0
  domcol           :       0.00       0.00      5          0          0          0          0          0          0          0          0          0
  dualagg          :       0.00       0.00      0          0          0          0          0          0          0          0          0          0
  dualcomp         :       0.00       0.00      5          0          0          0          0          0          0          0          0          0
  dualinfer        :       0.00       0.00      0          0          0          0          0          0          0          0          0          0
  dualsparsify     :       0.00       0.00      2          0          0          0          0          0          0          0          0          0
  gateextraction   :       0.00       0.00      0          0          0          0          0          0          0          0          0          0
  implics          :       0.00       0.00      8          0          0          0          0          0          0          0          0          0
  inttobinary      :       0.00       0.00      0          0          0          0          0          0          0          0          0          0
  qpkktref         :       0.00       0.00      0          0          0          0          0          0          0          0          0          0
  redvub           :       0.00       0.00      0          0          0          0          0          0          0          0          0          0
  sparsify         :       0.00       0.00      1          0          0          0          0          0          0          0          0          0
  stuffing         :       0.00       0.00      0          0          0          0          0          0          0          0          0          0
  trivial          :       0.00       0.00     19        288          0          0          0          0          0          0          0          0
  tworowbnd        :       0.00       0.00      0          0          0          0          0          0          0          0          0          0
  dualfix          :       0.00       0.00     19        141          0          0          0          0          0          0          0          0
  genvbounds       :       0.00       0.00      0          0          0          0          0          0          0          0          0          0
  probing          :       0.12       0.00      4         24        115          0         74          0          0          0          0          0
  pseudoobj        :       0.00       0.00      0          0          0          0          0          0          0          0          0          0
  symmetry         :       0.03       0.00      1          0          0          0          0          0          0          2          0          0
  vbounds          :       0.00       0.00      3          0          0          0          0          0          0          0          0          0
  varbound         :       0.00       0.00     17          0          0          0         38          0        144          0          0          0
  linear           :       0.03       0.00     27          0         97          0         88          0       1348          0          0         30
  orbitope         :       0.00       0.00      1          0          0          0          0          0          0          0          0          0
  logicor          :       0.00       0.00     14          0          0          0          0          0          0          0          0          0
  bounddisjunction :       0.00       0.00      0          0          0          0          0          0          0          0          0          0
  nonlinear        :       0.35       0.01     32          0          0          0          0          0          0         -2          0        -30
  benders          :       0.00       0.00      0          0          0          0          0          0          0          0          0          0
  components       :       0.00       0.00      1          0          0          0          0          0          0          0          0          0
  root node        :          -          -      -          7          -          -       2081          -          -          -          -          -
Constraints        :     Number  MaxNumber  #Separate #Propagate    #EnfoLP    #EnfoRelax  #EnfoPS    #Check   #ResProp    Cutoffs    DomReds       Cuts    Applied      Conss   Children
  benderslp        :          0          0          0          0         70          0          0        163          0          0          0          0          0          0          0
  integral         :          0          0          0          0         70          0          0        163          0          0        649          0          0          0         24
  varbound         :       1104       1104        133      21673          1          0          0        158        109          0        590          0          0          0          0
  linear           :        528        528        133      21857          1          0          0         91        109         38        451          0          0          0          0
  orbitope         :          2          2          0      19987          0          0          0         90          0          0          3          0          0          0          0
  logicor          :          4+         8        133        173          0          0          0         90          0          1          0          0          0          0          0
  bounddisjunction :          0+         2          0        117          0          0          0          0          0          0          0          0          0          0          0
  nonlinear        :        768        768        258      21818          3          0          0         90          0         50        715      16650       4551          0          0
  benders          :          0          0          0          0          1          0          0          8          0          0          0          0          0          0          0
  countsols        :          0          0          0          0          1          0          0          8          0          0          0          0          0          0          0
  components       :          0          0          0          0          0          0          0          0          0          0          0          0          0          0          0
Constraint Timings :  TotalTime  SetupTime   Separate  Propagate     EnfoLP     EnfoPS     EnfoRelax   Check    ResProp    SB-Prop
  benderslp        :       0.00       0.00       0.00       0.00       0.00       0.00       0.00       0.00       0.00       0.00
  integral         :       1.88       0.00       0.00       0.00       1.88       0.00       0.00       0.00       0.00       0.00
  varbound         :       0.16       0.00       0.03       0.12       0.00       0.00       0.00       0.01       0.00       0.00
  linear           :       0.19       0.00       0.10       0.05       0.00       0.00       0.00       0.01       0.00       0.02
  orbitope         :       0.00       0.00       0.00       0.00       0.00       0.00       0.00       0.00       0.00       0.00
  logicor          :       0.00       0.00       0.00       0.00       0.00       0.00       0.00       0.00       0.00       0.00
  bounddisjunction :       0.00       0.00       0.00       0.00       0.00       0.00       0.00       0.00       0.00       0.00
  nonlinear        :       1.04       0.01       0.43       0.47       0.00       0.00       0.00       0.06       0.00       0.05
  benders          :       0.00       0.00       0.00       0.00       0.00       0.00       0.00       0.00       0.00       0.00
  countsols        :       0.00       0.00       0.00       0.00       0.00       0.00       0.00       0.00       0.00       0.00
  components       :       0.00       0.00       0.00       0.00       0.00       0.00       0.00       0.00       0.00       0.00
Propagators        : #Propagate   #ResProp    Cutoffs    DomReds
  dualfix          :         26          0          0          0
  genvbounds       :        217          0          0         13
  nlobbt           :          0          0          0          0
  obbt             :         24          0          0         48
  probing          :          0          0          0          0
  pseudoobj        :        535          0          0          0
  redcost          :        463          0          0        552
  rootredcost      :          4          0          0         81
  symmetry         :          0          0          0          0
  vbounds          :      14877          0          0          0
Propagator Timings :  TotalTime  SetupTime   Presolve  Propagate    ResProp    SB-Prop
  dualfix          :       0.00       0.00       0.00       0.00       0.00       0.00
  genvbounds       :       0.02       0.00       0.00       0.02       0.00       0.00
  nlobbt           :       0.00       0.00       0.00       0.00       0.00       0.00
  obbt             :       2.99       0.00       0.00       2.99       0.00       0.00
  probing          :       0.12       0.00       0.12       0.00       0.00       0.00
  pseudoobj        :       0.01       0.00       0.00       0.01       0.00       0.00
  redcost          :       0.02       0.00       0.00       0.02       0.00       0.00
  rootredcost      :       0.00       0.00       0.00       0.00       0.00       0.00
  symmetry         :       0.03       0.00       0.03       0.00       0.00       0.00
  vbounds          :       0.01       0.00       0.00       0.00       0.00       0.00
Orbital fixing     :
  vars fixed to 0  :          0
  vars fixed to 1  :          0
Conflict Analysis  :       Time      Calls    Success    DomReds  Conflicts   Literals    Reconvs ReconvLits   Dualrays   Nonzeros   LP Iters   (pool size: [10000,10000])
  propagation      :       0.00          1          0          -          0        0.0          0        0.0          -          -          -
  infeasible LP    :       0.00          0          0          -          0        0.0          0        0.0          0        0.0          0
  bound exceed. LP :       0.04         46          5          -         45       22.2          1        2.0          0        0.0         84
  strong branching :       0.00          0          0          -          0        0.0          0        0.0          -          -          0
  pseudo solution  :       0.00          0          0          -          0        0.0          0        0.0          -          -          -
  applied globally :       0.00          -          -          0          6       10.3          -          -          0          -          -
  applied locally  :          -          -          -          0          0        0.0          -          -          0          -          -
Separators         :   ExecTime  SetupTime      Calls  RootCalls    Cutoffs    DomReds  FoundCuts ViaPoolAdd  DirectAdd    Applied ViaPoolApp  DirectApp      Conss
  cut pool         :       0.10          -        323        256          -          -       9116      17937          -          -          -          -          -    (maximal pool size:       8382)
  aggregation      :       4.99       0.00        176        133          0          0       8537      17658        127       1499       1458         41          0
  > cmir           :          -          -          -          -          -          -          -      16355         90       1290       1264         26          -
  > flowcover      :          -          -          -          -          -          -          -       1303         37        209        194         15          -
  > knapsackcover  :          -          -          -          -          -          -          -          0          0          0          0          0          -
  cgmip            :       0.00       0.00          0          0          0          0          0          0          0          0          0          0          0
  clique           :       0.00       0.00        133        133          0          0          0          0          0          0          0          0          0
  closecuts        :       0.00       0.00          0          0          0          0          0          0          0          0          0          0          0
  convexproj       :       0.00       0.00          0          0          0          0          0          0          0          0          0          0          0
  disjunctive      :       0.00       0.00          0          0          0          0          0          0          0          0          0          0          0
  eccuts           :       0.00       0.00          0          0          0          0          0          0          0          0          0          0          0
  gauge            :       0.00       0.00          0          0          0          0          0          0          0          0          0          0          0
  gomory           :       0.05       0.00         15         10          0          0        379        176        123         69         52         17          0
  > gomorymi       :          -          -          -          -          -          -          -        176        123         69         52         17          -
  > strongcg       :          -          -          -          -          -          -          -          0          0          0          0          0          -
  impliedbounds    :       0.04       0.00        176        133          0          0        256         47          0          2          2          0          0
  interminor       :       0.00       0.00          0          0          0          0          0          0          0          0          0          0          0
  intobj           :       0.00       0.00          0          0          0          0          0          0          0          0          0          0          0
  mcf              :       0.01       0.00         25         25          0          0          0          0          0          0          0          0          0
  minor            :       0.00       0.00          0          0          0          0          0          0          0          0          0          0          0
  mixing           :       0.04       0.00        179        133          0          0        189         56          0          7          7          0          0
  oddcycle         :       0.00       0.00          0          0          0          0          0          0          0          0          0          0          0
  rapidlearning    :       0.00       0.00          0          0          0          0          0          0          0          0          0          0          0
  rlt              :       0.01       0.00         10         10          0          0          4          0          0          0          0          0          0
  zerohalf         :       0.03       0.00         25         20          0          0          0          0          0          0          0          0          0
Cutselectors       :   ExecTime  SetupTime      Calls  RootCalls   Selected     Forced   Filtered  RootSelec   RootForc   RootFilt 
  hybrid           :       0.02       0.00        275        149       8334          0      26375       3505          0      22185
Pricers            :   ExecTime  SetupTime      Calls       Vars
  problem variables:       0.00          -          0          0
Branching Rules    :   ExecTime  SetupTime   BranchLP  BranchExt   BranchPS    Cutoffs    DomReds       Cuts      Conss   Children
  allfullstrong    :       0.00       0.00          0          0          0          0          0          0          0          0
  cloud            :       0.00       0.00          0          0          0          0          0          0          0          0
  distribution     :       0.00       0.00          0          0          0          0          0          0          0          0
  fullstrong       :       0.00       0.00          0          0          0          0          0          0          0          0
  inference        :       0.00       0.00          0          0          0          0          0          0          0          0
  leastinf         :       0.00       0.00          0          0          0          0          0          0          0          0
  lookahead        :       0.00       0.00          0          0          0          0          0          0          0          0
  mostinf          :       0.00       0.00          0          0          0          0          0          0          0          0
  multaggr         :       0.00       0.00          0          0          0          0          0          0          0          0
  nodereopt        :       0.00       0.00          0          0          0          0          0          0          0          0
  pscost           :       0.00       0.00          0          0          0          0          0          0          0          0
  random           :       0.00       0.00          0          0          0          0          0          0          0          0
  relpscost        :       1.88       0.00         67          0          0          0        649          0          0         24
  vanillafullstrong:       0.00       0.00          0          0          0          0          0          0          0          0
Primal Heuristics  :   ExecTime  SetupTime      Calls      Found       Best
  LP solutions     :       0.00          -          -          1          1
  relax solutions  :       0.00          -          -          0          0
  pseudo solutions :       0.00          -          -          0          0
  strong branching :       0.00          -          -          0          0
  actconsdiving    :       0.00       0.00          0          0          0
  adaptivediving   :       0.01       0.00          1          0          0
  alns             :       0.09       0.00          1          0          0
  bound            :       0.00       0.00          0          0          0
  clique           :       0.02       0.00          1          0          0
  coefdiving       :       0.00       0.00          0          0          0
  completesol      :       0.00       0.00          0          0          0
  conflictdiving   :       0.02       0.00          1          0          0
  crossover        :       0.00       0.00          0          0          0
  dins             :       0.00       0.00          0          0          0
  distributiondivin:       0.00       0.00          0          0          0
  dps              :       0.00       0.00          0          0          0
  dualval          :       0.00       0.00          0          0          0
  farkasdiving     :       0.09       0.00          1          0          0
  feaspump         :       0.11       0.00          1          0          0
  fixandinfer      :       0.00       0.00          0          0          0
  fracdiving       :       0.00       0.00          0          0          0
  gins             :       0.00       0.00          0          0          0
  guideddiving     :       0.00       0.00          0          0          0
  indicator        :       0.00       0.00          0          0          0
  indicatordiving  :       0.00       0.00          0          0          0
  intdiving        :       0.00       0.00          0          0          0
  intshifting      :       0.00       0.00          1          0          0
  linesearchdiving :       0.00       0.00          0          0          0
  localbranching   :       0.00       0.00          0          0          0
  locks            :       0.01       0.00          1          0          0
  lpface           :       0.00       0.00          0          0          0
  mpec             :       0.00       0.00          0          0          0
  multistart       :       0.00       0.00          0          0          0
  mutation         :       0.00       0.00          0          0          0
  nlpdiving        :       0.00       0.00          0          0          0
  objpscostdiving  :       0.00       0.00          0          0          0
  octane           :       0.00       0.00          0          0          0
  ofins            :       0.00       0.00          0          0          0
  oneopt           :       0.00       0.00          5          0          0
  padm             :       0.00       0.00          0          0          0
  proximity        :       0.00       0.00          0          0          0
  pscostdiving     :       0.02       0.00          1          0          0
  randrounding     :       0.73       0.00        152          0          0
  rens             :       0.00       0.00          0          0          0
  reoptsols        :       0.00       0.00          0          0          0
  repair           :       0.00       0.00          0          0          0
  rins             :       0.00       0.00          0          0          0
  rootsoldiving    :       0.00       0.00          0          0          0
  rounding         :       0.03       0.00        201          0          0
  shiftandpropagate:       0.03       0.00          1          0          0
  shifting         :       0.15       0.00        176          0          0
  simplerounding   :       0.00       0.00          0          0          0
  subnlp           :       2.54       0.00          6          5          3
  trivial          :       0.00       0.00          2          0          0
  trivialnegation  :       0.00       0.00          0          0          0
  trustregion      :       0.00       0.00          0          0          0
  trysol           :       0.00       0.00          0          0          0
  twoopt           :       0.00       0.00          0          0          0
  undercover       :       0.64       0.00          1          2          2
  vbounds          :       0.00       0.00          0          0          0
  veclendiving     :       0.00       0.00          0          0          0
  zeroobj          :       0.00       0.00          0          0          0
  zirounding       :       0.00       0.00         12          0          0
  other solutions  :          -          -          -          0          -
Expressions        :   #IntEval  IntEvalTi   #RevProp  RevPropTi    DomReds    Cutoffs  #Estimate  EstimTime  Branching  #Simplify SimplifyTi Simplified
  pow              :      67070       0.01       1608       0.00          0          0       8649       0.00          0       2146       0.00          0
  prod             :      15408       0.00          0       0.00          0          0      42586       0.00          0       3970       0.00       2784
  sum              :      25344       0.01          0       0.00          0          0       6781       0.00          0       6340       0.01       2370
  val              :          0       0.00          0       0.00          0          0          0       0.00          0          0       0.00          0
  var              :     222174       0.02          0       0.00          0          0          0       0.00          0       8618       0.00        834
Nlhdlrs            :    Detects  DetectAll DetectTime   #IntEval  IntEvalTi   #RevProp  RevPropTi    DomReds    Cutoffs   #Enforce   EnfoTime       Cuts  Branching
  soc              :          0          0       0.00          0       0.00          0       0.00          0          0          0       0.00          0          0
  convex           :          0          0       0.00          0       0.00          0       0.00          0          0          0       0.00          0          0
  concave          :          0          0       0.00          0       0.00          0       0.00          0          0          0       0.00          0          0
  quotient         :          0          0       0.00          0       0.00          0       0.00          0          0          0       0.00          0          0
  quadratic        :        768      25344       0.03     134623       0.14     104378       0.16       5468          2          0       0.00          0          0
  default          :       2165      35499       0.00      85738       0.02       7101       0.00          0          0      57824       0.08      11646          0
  bilinear         :          0          0       0.00          0       0.00          0       0.00          0          0          0       0.00          0          0
  perspective      :        216        216       0.00          0       0.00          0       0.00         22          0       7662       0.07      10008          0
LP                 :       Time      Calls Iterations  Iter/call   Iter/sec  Time-0-It Calls-0-It    ItLimit
  primal LP        :       0.27         52          0       0.00       0.00       0.27         52
  dual LP          :       1.30        407      14306      42.45   11046.21       0.05         70
  lex dual LP      :       0.00          0          0       0.00          -
  barrier LP       :       0.00          0          0       0.00          -       0.00          0
  resolve instable :       0.01          1        163     163.00          -
  diving/probing LP:       3.08        375       8049      21.46    2611.34
  strong branching :       1.41        235      18175      77.34   12905.47          -          -          0
    (at root node) :          -         97       9472      97.65          -
  conflict analysis:       0.01         10         84       8.40    8076.92
NLP relaxation     :
  solve time       :       0.00 (0 calls)
  convexity        :  nonconvex (858 linear rows, 336 convex ineq., 432 nonconvex ineq., 0 nonlinear eq. or two-sided ineq.)
NLP Solvers        :  #Problems  ProblemTi    #Solves  SolveTime      #Iter  Time/Iter      #Okay #TimeLimit #IterLimit #LObjLimit #Interrupt  #NumError #EvalError  #OutOfMem #LicenseEr #OtherTerm   #GlobOpt    #LocOpt  #Feasible #LocInfeas #GlobInfea #Unbounded   #Unknown
  ipopt            :          8       0.01          7       2.56        148       0.02          7          0          0          0          0          0          0          0          0          0          0          7          0          0          0          0          0
B&B Tree           :
  number of runs   :          1
  nodes            :         25 (12 internal, 13 leaves)
  feasible leaves  :          1
  infeas. leaves   :          0
  objective leaves :         12
  nodes (total)    :         25 (12 internal, 13 leaves)
  nodes left       :          0
  max depth        :         10
  max depth (total):         10
  backtracks       :         11 (44.0%)
  early backtracks :          0 (0.0%)
  nodes exc. ref.  :          0 (0.0%)
  delayed cutoffs  :          0
  repropagations   :          2 (0 domain reductions, 0 cutoffs)
  avg switch length:       3.52
  switching time   :       0.06
Root Node          :
  First LP value   : +1.78296321340108e+05
  First LP Iters   :       1221 (27825.89 Iter/sec)
  First LP Time    :       0.04
  Final Dual Bound : +2.39806362801230e+05
  Final Root Iters :      10073
  Root LP Estimate : +2.39850602323406e+05
Solution           :
  Solutions found  :          8 (6 improvements)
  First Solution   : +2.87375671698362e+05   (in run 1, after 1 nodes, 0.93 seconds, depth 0, found by <undercover>)
  Gap First Sol.   :      61.18 %
  Gap Last Sol.    :       1.10 %
  Primal Bound     : +2.45800178599199e+05   (in run 1, after 16 nodes, 17.29 seconds, depth 10, found by <relaxation>)
  Dual Bound       : +2.45800178599199e+05
  Gap              :       0.00 %
Integrals          :      Total       Avg%
  primal-dual      :     197.73      11.17
  primal-ref       :          -          - (not evaluated)
  dual-ref         :          -          - (not evaluated)
